; benchmark generated from python API
(set-info :status unknown)
(declare-fun x_epoch () Int)
(declare-fun y_epoch () Int)
(declare-fun x_shift_period_848542_epoch () Int)
(declare-fun x_year () Int)
(declare-fun x_month () Int)
(declare-fun x_day () Int)
(declare-fun x_shift_period_848542_year () Int)
(declare-fun x_shift_period_848542_month () Int)
(declare-fun x_shift_period_848542_day () Int)
(assert
 (>= x_epoch (- 36584)))
(assert
 (<= x_epoch 36829))
(assert
 (>= y_epoch (- 36584)))
(assert
 (<= y_epoch 36829))
(assert
 (= x_epoch 8371))
(assert
 (>= x_shift_period_848542_epoch (- 36584)))
(assert
 (<= x_shift_period_848542_epoch 36829))
(assert
 (let (($x2293 (<= x_year 2100)))
 (let (($x1504 (>= x_year 1900)))
 (let (($x684 (= x_month 11)))
 (let (($x1263 (= x_month 9)))
 (let (($x791 (= x_month 6)))
 (let (($x721 (= x_month 4)))
 (let ((?x2607 (ite (or $x721 $x791 $x1263 $x684) 30 31)))
 (let (($x257 (= (mod x_year 4) 0)))
 (let (($x1207 (= (mod x_year 100) 0)))
 (let (($x2715 (= (mod x_year 400) 0)))
 (let (($x656 (ite $x2715 true (ite $x1207 false $x257))))
 (let (($x2319 (= x_month 2)))
 (let ((?x235 (ite $x2319 (ite $x656 29 28) ?x2607)))
 (let (($x2786 (>= x_day 1)))
 (let (($x111 (<= x_month 12)))
 (let (($x2376 (>= x_month 1)))
 (and $x2376 $x111 $x2786 (<= x_day ?x235) $x1504 $x2293))))))))))))))))))
(assert
 (let (($x29 (or (and (= (mod 2000 4) 0) (and (distinct (mod 2000 100) 0) true)) (= (mod 2000 400) 0))))
 (let ((?x36 (ite (= 3 2) (ite $x29 31 31) (ite (= 3 1) (ite $x29 0 0) 0))))
 (let ((?x40 (ite $x29 60 59)))
 (let ((?x41 (ite (= 3 3) ?x40 ?x36)))
 (let ((?x46 (ite (= 3 4) (ite $x29 91 90) ?x41)))
 (let ((?x52 (ite (= 3 5) (ite $x29 121 120) ?x46)))
 (let ((?x58 (ite (= 3 6) (ite $x29 152 151) ?x52)))
 (let ((?x64 (ite (= 3 7) (ite $x29 182 181) ?x58)))
 (let ((?x70 (ite (= 3 8) (ite $x29 213 212) ?x64)))
 (let ((?x76 (ite (= 3 9) (ite $x29 244 243) ?x70)))
 (let ((?x82 (ite (= 3 10) (ite $x29 274 273) ?x76)))
 (let ((?x88 (ite (= 3 11) (ite $x29 305 304) ?x82)))
 (let ((?x16 (- (+ (* 365 (- 2000 1)) (div (- 2000 1) 4)) (div (- 2000 1) 100))))
 (let ((?x95 (+ (+ ?x16 (div (- 2000 1) 400)) (ite (= 3 12) (ite $x29 335 334) ?x88))))
 (let ((?x97 (+ ?x95 (- 1 1))))
 (let (($x257 (= (mod x_year 4) 0)))
 (let (($x1207 (= (mod x_year 100) 0)))
 (let (($x2715 (= (mod x_year 400) 0)))
 (let (($x656 (ite $x2715 true (ite $x1207 false $x257))))
 (let (($x2043 (= 2 x_month)))
 (let ((?x2800 (ite $x2043 (ite $x656 31 31) (ite (= 1 x_month) (ite $x656 0 0) 0))))
 (let (($x914 (= 3 x_month)))
 (let (($x1891 (= 4 x_month)))
 (let ((?x189 (ite $x1891 (ite $x656 91 90) (ite $x914 (ite $x656 60 59) ?x2800))))
 (let (($x2398 (= 5 x_month)))
 (let (($x3221 (= 6 x_month)))
 (let ((?x2274 (ite $x3221 (ite $x656 152 151) (ite $x2398 (ite $x656 121 120) ?x189))))
 (let (($x1117 (= 7 x_month)))
 (let (($x1752 (= 8 x_month)))
 (let ((?x2826 (ite $x1752 (ite $x656 213 212) (ite $x1117 (ite $x656 182 181) ?x2274))))
 (let (($x1153 (= 9 x_month)))
 (let (($x303 (= 10 x_month)))
 (let ((?x2978 (ite $x303 (ite $x656 274 273) (ite $x1153 (ite $x656 244 243) ?x2826))))
 (let (($x2818 (= 11 x_month)))
 (let (($x140 (= 12 x_month)))
 (let ((?x620 (ite $x140 (ite $x656 335 334) (ite $x2818 (ite $x656 305 304) ?x2978))))
 (let ((?x778 (- (+ (* 365 (- x_year 1)) (div (- x_year 1) 4)) (div (- x_year 1) 100))))
 (let ((?x858 (+ (+ (+ ?x778 (div (- x_year 1) 400)) ?x620) (- x_day 1))))
 (= x_epoch (- ?x858 ?x97)))))))))))))))))))))))))))))))))))))))))
(assert
 (let (($x4482 (<= x_shift_period_848542_year 2100)))
 (let (($x4483 (>= x_shift_period_848542_year 1900)))
 (let (($x4494 (= x_shift_period_848542_month 11)))
 (let (($x3392 (= x_shift_period_848542_month 9)))
 (let (($x4495 (= x_shift_period_848542_month 6)))
 (let (($x4497 (= x_shift_period_848542_month 4)))
 (let ((?x2087 (ite (or $x4497 $x4495 $x3392 $x4494) 30 31)))
 (let (($x4489 (= (mod x_shift_period_848542_year 4) 0)))
 (let (($x4512 (= (mod x_shift_period_848542_year 100) 0)))
 (let (($x4510 (= (mod x_shift_period_848542_year 400) 0)))
 (let (($x1243 (ite $x4510 true (ite $x4512 false $x4489))))
 (let (($x4509 (= x_shift_period_848542_month 2)))
 (let (($x4507 (>= x_shift_period_848542_day 1)))
 (let (($x4506 (<= x_shift_period_848542_month 12)))
 (let (($x2105 (>= x_shift_period_848542_month 1)))
 (and $x2105 $x4506 $x4507 (<= x_shift_period_848542_day (ite $x4509 (ite $x1243 29 28) ?x2087)) $x4483 $x4482)))))))))))))))))
(assert
 (let (($x29 (or (and (= (mod 2000 4) 0) (and (distinct (mod 2000 100) 0) true)) (= (mod 2000 400) 0))))
 (let ((?x36 (ite (= 3 2) (ite $x29 31 31) (ite (= 3 1) (ite $x29 0 0) 0))))
 (let ((?x40 (ite $x29 60 59)))
 (let ((?x41 (ite (= 3 3) ?x40 ?x36)))
 (let ((?x46 (ite (= 3 4) (ite $x29 91 90) ?x41)))
 (let ((?x52 (ite (= 3 5) (ite $x29 121 120) ?x46)))
 (let ((?x58 (ite (= 3 6) (ite $x29 152 151) ?x52)))
 (let ((?x64 (ite (= 3 7) (ite $x29 182 181) ?x58)))
 (let ((?x70 (ite (= 3 8) (ite $x29 213 212) ?x64)))
 (let ((?x76 (ite (= 3 9) (ite $x29 244 243) ?x70)))
 (let ((?x82 (ite (= 3 10) (ite $x29 274 273) ?x76)))
 (let ((?x88 (ite (= 3 11) (ite $x29 305 304) ?x82)))
 (let ((?x16 (- (+ (* 365 (- 2000 1)) (div (- 2000 1) 4)) (div (- 2000 1) 100))))
 (let ((?x95 (+ (+ ?x16 (div (- 2000 1) 400)) (ite (= 3 12) (ite $x29 335 334) ?x88))))
 (let ((?x97 (+ ?x95 (- 1 1))))
 (let (($x4489 (= (mod x_shift_period_848542_year 4) 0)))
 (let (($x4512 (= (mod x_shift_period_848542_year 100) 0)))
 (let (($x4510 (= (mod x_shift_period_848542_year 400) 0)))
 (let (($x1243 (ite $x4510 true (ite $x4512 false $x4489))))
 (let ((?x4461 (ite (= 1 x_shift_period_848542_month) (ite $x1243 0 0) 0)))
 (let ((?x4445 (ite (= 3 x_shift_period_848542_month) (ite $x1243 60 59) (ite (= 2 x_shift_period_848542_month) (ite $x1243 31 31) ?x4461))))
 (let ((?x4429 (ite (= 5 x_shift_period_848542_month) (ite $x1243 121 120) (ite (= 4 x_shift_period_848542_month) (ite $x1243 91 90) ?x4445))))
 (let ((?x3391 (ite (= 7 x_shift_period_848542_month) (ite $x1243 182 181) (ite (= 6 x_shift_period_848542_month) (ite $x1243 152 151) ?x4429))))
 (let ((?x4390 (ite (= 9 x_shift_period_848542_month) (ite $x1243 244 243) (ite (= 8 x_shift_period_848542_month) (ite $x1243 213 212) ?x3391))))
 (let ((?x4378 (ite (= 11 x_shift_period_848542_month) (ite $x1243 305 304) (ite (= 10 x_shift_period_848542_month) (ite $x1243 274 273) ?x4390))))
 (let ((?x4454 (+ (* 365 (- x_shift_period_848542_year 1)) (div (- x_shift_period_848542_year 1) 4))))
 (let ((?x4458 (+ (- ?x4454 (div (- x_shift_period_848542_year 1) 100)) (div (- x_shift_period_848542_year 1) 400))))
 (let ((?x4371 (+ ?x4458 (ite (= 12 x_shift_period_848542_month) (ite $x1243 335 334) ?x4378))))
 (= x_shift_period_848542_epoch (- (+ ?x4371 (- x_shift_period_848542_day 1)) ?x97)))))))))))))))))))))))))))))))
(assert
 (let ((?x2339 (* 12 x_year)))
 (let ((?x222 (+ ?x2339 (- x_month 1))))
 (let ((?x4294 (+ ?x222 3)))
 (let ((?x4295 (div ?x4294 12)))
 (= x_shift_period_848542_year ?x4295))))))
(assert
 (let ((?x4297 (+ (mod (+ (+ (* 12 x_year) (- x_month 1)) 3) 12) 1)))
 (= x_shift_period_848542_month ?x4297)))
(assert
 (let ((?x4297 (+ (mod (+ (+ (* 12 x_year) (- x_month 1)) 3) 12) 1)))
 (let ((?x4258 (ite (or (= ?x4297 4) (= ?x4297 6) (= ?x4297 9) (= ?x4297 11)) 30 31)))
 (let ((?x2339 (* 12 x_year)))
 (let ((?x222 (+ ?x2339 (- x_month 1))))
 (let ((?x4294 (+ ?x222 3)))
 (let ((?x4295 (div ?x4294 12)))
 (let (($x4279 (ite (= (mod ?x4295 400) 0) true (ite (= (mod ?x4295 100) 0) false (= (mod ?x4295 4) 0)))))
 (let ((?x4261 (ite (= ?x4297 2) (ite $x4279 29 28) ?x4258)))
 (let ((?x4262 (ite (<= x_day ?x4261) x_day ?x4261)))
 (let (($x684 (= x_month 11)))
 (let (($x1263 (= x_month 9)))
 (let (($x791 (= x_month 6)))
 (let (($x721 (= x_month 4)))
 (let ((?x2607 (ite (or $x721 $x791 $x1263 $x684) 30 31)))
 (let (($x257 (= (mod x_year 4) 0)))
 (let (($x1207 (= (mod x_year 100) 0)))
 (let (($x2715 (= (mod x_year 400) 0)))
 (let (($x656 (ite $x2715 true (ite $x1207 false $x257))))
 (let (($x2319 (= x_month 2)))
 (let ((?x235 (ite $x2319 (ite $x656 29 28) ?x2607)))
 (let (($x2597 (= x_day ?x235)))
 (= x_shift_period_848542_day (ite false (ite $x2597 ?x4261 ?x4262) ?x4262))))))))))))))))))))))))
(assert
 (= y_epoch x_shift_period_848542_epoch))
(assert
 (= y_epoch 8460))
(check-sat)
